# opt=modredundant freq b3lyp/6-31g(d) em=gd3bj scrf=(smd,solvent=thf)

Title

0 1

2 23 F
1 19 F


